p cnf 381 964
-81 191 0
-82 -191 0
-83 192 0
-84 193 0
-192 193 0
-84 -192 0
-85 -193 0
-86 194 0
-87 195 0
-194 195 0
-87 -194 0
-88 -195 0
-89 196 0
-90 197 0
-196 197 0
-90 -196 0
-91 -197 0
82 0
85 0
86 0
89 0
-92 81 6 0
-93 82 5 0
-94 83 7 8 0
-95 84 9 10 0
-96 85 1 2 3 4 0
-97 86 0
-98 87 0
-99 88 7 8 0
-100 89 0
-101 90 0
-102 91 9 10 0
-1 198 0
-2 199 0
-198 199 0
-2 -198 0
-3 200 0
-199 200 0
-3 -199 0
-4 201 0
-200 201 0
-4 -200 0
-5 202 0
-201 202 0
-5 -201 0
-6 203 0
-202 203 0
-6 -202 0
-7 204 0
-203 204 0
-7 -203 0
-8 205 0
-204 205 0
-8 -204 0
-9 206 0
-205 206 0
-9 -205 0
-10 -206 0
-92 207 0
-93 -207 0
-94 208 0
-95 209 0
-208 209 0
-95 -208 0
-96 -209 0
-97 210 0
-98 211 0
-210 211 0
-98 -210 0
-99 -211 0
-100 212 0
-101 213 0
-212 213 0
-101 -212 0
-102 -213 0
-1 81 0
-1 83 0
-2 82 0
-2 83 0
-3 81 0
-3 84 0
-4 82 0
-4 84 0
-5 81 0
-6 82 0
-7 81 0
-7 85 0
-7 86 0
-8 82 0
-8 85 0
-8 87 0
-9 81 0
-9 85 0
-9 89 0
-10 82 0
-10 85 0
-10 90 0
-1 96 0
-1 97 0
-2 96 0
-2 98 0
-3 96 0
-3 100 0
-4 96 0
-4 101 0
-5 93 0
-6 92 0
-7 94 0
-7 99 0
-8 94 0
-8 99 0
-9 95 0
-9 102 0
-10 95 0
-10 102 0
-103 92 16 0
-104 93 15 0
-105 94 17 18 0
-106 95 19 20 0
-107 96 11 12 13 14 0
-108 97 0
-109 98 0
-110 99 17 18 0
-111 100 0
-112 101 0
-113 102 19 20 0
-11 214 0
-12 215 0
-214 215 0
-12 -214 0
-13 216 0
-215 216 0
-13 -215 0
-14 217 0
-216 217 0
-14 -216 0
-15 218 0
-217 218 0
-15 -217 0
-16 219 0
-218 219 0
-16 -218 0
-17 220 0
-219 220 0
-17 -219 0
-18 221 0
-220 221 0
-18 -220 0
-19 222 0
-221 222 0
-19 -221 0
-20 -222 0
-103 223 0
-104 -223 0
-105 224 0
-106 225 0
-224 225 0
-106 -224 0
-107 -225 0
-108 226 0
-109 227 0
-226 227 0
-109 -226 0
-110 -227 0
-111 228 0
-112 229 0
-228 229 0
-112 -228 0
-113 -229 0
-11 92 0
-11 94 0
-12 93 0
-12 94 0
-13 92 0
-13 95 0
-14 93 0
-14 95 0
-15 92 0
-16 93 0
-17 92 0
-17 96 0
-17 97 0
-18 93 0
-18 96 0
-18 98 0
-19 92 0
-19 96 0
-19 100 0
-20 93 0
-20 96 0
-20 101 0
-11 107 0
-11 108 0
-12 107 0
-12 109 0
-13 107 0
-13 111 0
-14 107 0
-14 112 0
-15 104 0
-16 103 0
-17 105 0
-17 110 0
-18 105 0
-18 110 0
-19 106 0
-19 113 0
-20 106 0
-20 113 0
-114 103 26 0
-115 104 25 0
-116 105 27 28 0
-117 106 29 30 0
-118 107 21 22 23 24 0
-119 108 0
-120 109 0
-121 110 27 28 0
-122 111 0
-123 112 0
-124 113 29 30 0
-21 230 0
-22 231 0
-230 231 0
-22 -230 0
-23 232 0
-231 232 0
-23 -231 0
-24 233 0
-232 233 0
-24 -232 0
-25 234 0
-233 234 0
-25 -233 0
-26 235 0
-234 235 0
-26 -234 0
-27 236 0
-235 236 0
-27 -235 0
-28 237 0
-236 237 0
-28 -236 0
-29 238 0
-237 238 0
-29 -237 0
-30 -238 0
-114 239 0
-115 -239 0
-116 240 0
-117 241 0
-240 241 0
-117 -240 0
-118 -241 0
-119 242 0
-120 243 0
-242 243 0
-120 -242 0
-121 -243 0
-122 244 0
-123 245 0
-244 245 0
-123 -244 0
-124 -245 0
-21 103 0
-21 105 0
-22 104 0
-22 105 0
-23 103 0
-23 106 0
-24 104 0
-24 106 0
-25 103 0
-26 104 0
-27 103 0
-27 107 0
-27 108 0
-28 104 0
-28 107 0
-28 109 0
-29 103 0
-29 107 0
-29 111 0
-30 104 0
-30 107 0
-30 112 0
-21 118 0
-21 119 0
-22 118 0
-22 120 0
-23 118 0
-23 122 0
-24 118 0
-24 123 0
-25 115 0
-26 114 0
-27 116 0
-27 121 0
-28 116 0
-28 121 0
-29 117 0
-29 124 0
-30 117 0
-30 124 0
-125 114 36 0
-126 115 35 0
-127 116 37 38 0
-128 117 39 40 0
-129 118 31 32 33 34 0
-130 119 0
-131 120 0
-132 121 37 38 0
-133 122 0
-134 123 0
-135 124 39 40 0
-31 246 0
-32 247 0
-246 247 0
-32 -246 0
-33 248 0
-247 248 0
-33 -247 0
-34 249 0
-248 249 0
-34 -248 0
-35 250 0
-249 250 0
-35 -249 0
-36 251 0
-250 251 0
-36 -250 0
-37 252 0
-251 252 0
-37 -251 0
-38 253 0
-252 253 0
-38 -252 0
-39 254 0
-253 254 0
-39 -253 0
-40 -254 0
-125 255 0
-126 -255 0
-127 256 0
-128 257 0
-256 257 0
-128 -256 0
-129 -257 0
-130 258 0
-131 259 0
-258 259 0
-131 -258 0
-132 -259 0
-133 260 0
-134 261 0
-260 261 0
-134 -260 0
-135 -261 0
-31 114 0
-31 116 0
-32 115 0
-32 116 0
-33 114 0
-33 117 0
-34 115 0
-34 117 0
-35 114 0
-36 115 0
-37 114 0
-37 118 0
-37 119 0
-38 115 0
-38 118 0
-38 120 0
-39 114 0
-39 118 0
-39 122 0
-40 115 0
-40 118 0
-40 123 0
-31 129 0
-31 130 0
-32 129 0
-32 131 0
-33 129 0
-33 133 0
-34 129 0
-34 134 0
-35 126 0
-36 125 0
-37 127 0
-37 132 0
-38 127 0
-38 132 0
-39 128 0
-39 135 0
-40 128 0
-40 135 0
-136 125 46 0
-137 126 45 0
-138 127 47 48 0
-139 128 49 50 0
-140 129 41 42 43 44 0
-141 130 0
-142 131 0
-143 132 47 48 0
-144 133 0
-145 134 0
-146 135 49 50 0
-41 262 0
-42 263 0
-262 263 0
-42 -262 0
-43 264 0
-263 264 0
-43 -263 0
-44 265 0
-264 265 0
-44 -264 0
-45 266 0
-265 266 0
-45 -265 0
-46 267 0
-266 267 0
-46 -266 0
-47 268 0
-267 268 0
-47 -267 0
-48 269 0
-268 269 0
-48 -268 0
-49 270 0
-269 270 0
-49 -269 0
-50 -270 0
-136 271 0
-137 -271 0
-138 272 0
-139 273 0
-272 273 0
-139 -272 0
-140 -273 0
-141 274 0
-142 275 0
-274 275 0
-142 -274 0
-143 -275 0
-144 276 0
-145 277 0
-276 277 0
-145 -276 0
-146 -277 0
-41 125 0
-41 127 0
-42 126 0
-42 127 0
-43 125 0
-43 128 0
-44 126 0
-44 128 0
-45 125 0
-46 126 0
-47 125 0
-47 129 0
-47 130 0
-48 126 0
-48 129 0
-48 131 0
-49 125 0
-49 129 0
-49 133 0
-50 126 0
-50 129 0
-50 134 0
-41 140 0
-41 141 0
-42 140 0
-42 142 0
-43 140 0
-43 144 0
-44 140 0
-44 145 0
-45 137 0
-46 136 0
-47 138 0
-47 143 0
-48 138 0
-48 143 0
-49 139 0
-49 146 0
-50 139 0
-50 146 0
-147 136 56 0
-148 137 55 0
-149 138 57 58 0
-150 139 59 60 0
-151 140 51 52 53 54 0
-152 141 0
-153 142 0
-154 143 57 58 0
-155 144 0
-156 145 0
-157 146 59 60 0
-51 278 0
-52 279 0
-278 279 0
-52 -278 0
-53 280 0
-279 280 0
-53 -279 0
-54 281 0
-280 281 0
-54 -280 0
-55 282 0
-281 282 0
-55 -281 0
-56 283 0
-282 283 0
-56 -282 0
-57 284 0
-283 284 0
-57 -283 0
-58 285 0
-284 285 0
-58 -284 0
-59 286 0
-285 286 0
-59 -285 0
-60 -286 0
-147 287 0
-148 -287 0
-149 288 0
-150 289 0
-288 289 0
-150 -288 0
-151 -289 0
-152 290 0
-153 291 0
-290 291 0
-153 -290 0
-154 -291 0
-155 292 0
-156 293 0
-292 293 0
-156 -292 0
-157 -293 0
-51 136 0
-51 138 0
-52 137 0
-52 138 0
-53 136 0
-53 139 0
-54 137 0
-54 139 0
-55 136 0
-56 137 0
-57 136 0
-57 140 0
-57 141 0
-58 137 0
-58 140 0
-58 142 0
-59 136 0
-59 140 0
-59 144 0
-60 137 0
-60 140 0
-60 145 0
-51 151 0
-51 152 0
-52 151 0
-52 153 0
-53 151 0
-53 155 0
-54 151 0
-54 156 0
-55 148 0
-56 147 0
-57 149 0
-57 154 0
-58 149 0
-58 154 0
-59 150 0
-59 157 0
-60 150 0
-60 157 0
-158 147 66 0
-159 148 65 0
-160 149 67 68 0
-161 150 69 70 0
-162 151 61 62 63 64 0
-163 152 0
-164 153 0
-165 154 67 68 0
-166 155 0
-167 156 0
-168 157 69 70 0
-61 294 0
-62 295 0
-294 295 0
-62 -294 0
-63 296 0
-295 296 0
-63 -295 0
-64 297 0
-296 297 0
-64 -296 0
-65 298 0
-297 298 0
-65 -297 0
-66 299 0
-298 299 0
-66 -298 0
-67 300 0
-299 300 0
-67 -299 0
-68 301 0
-300 301 0
-68 -300 0
-69 302 0
-301 302 0
-69 -301 0
-70 -302 0
-158 303 0
-159 -303 0
-160 304 0
-161 305 0
-304 305 0
-161 -304 0
-162 -305 0
-163 306 0
-164 307 0
-306 307 0
-164 -306 0
-165 -307 0
-166 308 0
-167 309 0
-308 309 0
-167 -308 0
-168 -309 0
-61 147 0
-61 149 0
-62 148 0
-62 149 0
-63 147 0
-63 150 0
-64 148 0
-64 150 0
-65 147 0
-66 148 0
-67 147 0
-67 151 0
-67 152 0
-68 148 0
-68 151 0
-68 153 0
-69 147 0
-69 151 0
-69 155 0
-70 148 0
-70 151 0
-70 156 0
-61 162 0
-61 163 0
-62 162 0
-62 164 0
-63 162 0
-63 166 0
-64 162 0
-64 167 0
-65 159 0
-66 158 0
-67 160 0
-67 165 0
-68 160 0
-68 165 0
-69 161 0
-69 168 0
-70 161 0
-70 168 0
-169 158 76 0
-170 159 75 0
-171 160 77 78 0
-172 161 79 80 0
-173 162 71 72 73 74 0
-174 163 0
-175 164 0
-176 165 77 78 0
-177 166 0
-178 167 0
-179 168 79 80 0
-71 310 0
-72 311 0
-310 311 0
-72 -310 0
-73 312 0
-311 312 0
-73 -311 0
-74 313 0
-312 313 0
-74 -312 0
-75 314 0
-313 314 0
-75 -313 0
-76 315 0
-314 315 0
-76 -314 0
-77 316 0
-315 316 0
-77 -315 0
-78 317 0
-316 317 0
-78 -316 0
-79 318 0
-317 318 0
-79 -317 0
-80 -318 0
-169 319 0
-170 -319 0
-171 320 0
-172 321 0
-320 321 0
-172 -320 0
-173 -321 0
-174 322 0
-175 323 0
-322 323 0
-175 -322 0
-176 -323 0
-177 324 0
-178 325 0
-324 325 0
-178 -324 0
-179 -325 0
-71 158 0
-71 160 0
-72 159 0
-72 160 0
-73 158 0
-73 161 0
-74 159 0
-74 161 0
-75 158 0
-76 159 0
-77 158 0
-77 162 0
-77 163 0
-78 159 0
-78 162 0
-78 164 0
-79 158 0
-79 162 0
-79 166 0
-80 159 0
-80 162 0
-80 167 0
-71 173 0
-71 174 0
-72 173 0
-72 175 0
-73 173 0
-73 177 0
-74 173 0
-74 178 0
-75 170 0
-76 169 0
-77 171 0
-77 176 0
-78 171 0
-78 176 0
-79 172 0
-79 179 0
-80 172 0
-80 179 0
175 180 0
178 180 0
-1 181 0
-11 181 0
-21 181 0
-31 181 0
-41 181 0
-51 181 0
-61 181 0
-71 181 0
-2 326 182 0
-12 327 182 0
-326 327 182 0
-12 -326 182 0
-22 328 182 0
-327 328 182 0
-22 -327 182 0
-32 329 182 0
-328 329 182 0
-32 -328 182 0
-42 330 182 0
-329 330 182 0
-42 -329 182 0
-52 331 182 0
-330 331 182 0
-52 -330 182 0
-62 332 182 0
-331 332 182 0
-62 -331 182 0
-72 -332 182 0
-3 183 0
-13 183 0
-23 183 0
-33 183 0
-43 183 0
-53 183 0
-63 183 0
-73 183 0
-4 333 184 0
-14 334 184 0
-333 334 184 0
-14 -333 184 0
-24 335 184 0
-334 335 184 0
-24 -334 184 0
-34 336 184 0
-335 336 184 0
-34 -335 184 0
-44 337 184 0
-336 337 184 0
-44 -336 184 0
-54 338 184 0
-337 338 184 0
-54 -337 184 0
-64 339 184 0
-338 339 184 0
-64 -338 184 0
-74 -339 184 0
-5 340 185 0
-341 185 0
-15 342 185 0
-340 342 185 0
-15 -340 343 185 0
-341 343 185 0
-15 -341 185 0
-25 344 185 0
-342 344 185 0
-25 -342 345 185 0
-343 345 185 0
-25 -343 185 0
-35 346 185 0
-344 346 185 0
-35 -344 347 185 0
-345 347 185 0
-35 -345 185 0
-45 348 185 0
-346 348 185 0
-45 -346 349 185 0
-347 349 185 0
-45 -347 185 0
-55 350 185 0
-348 350 185 0
-55 -348 351 185 0
-349 351 185 0
-55 -349 185 0
-65 352 185 0
-350 352 185 0
-65 -350 353 185 0
-351 353 185 0
-65 -351 185 0
-75 -353 185 0
-6 354 186 0
-355 186 0
-16 356 186 0
-354 356 186 0
-16 -354 357 186 0
-355 357 186 0
-16 -355 186 0
-26 358 186 0
-356 358 186 0
-26 -356 359 186 0
-357 359 186 0
-26 -357 186 0
-36 360 186 0
-358 360 186 0
-36 -358 361 186 0
-359 361 186 0
-36 -359 186 0
-46 362 186 0
-360 362 186 0
-46 -360 363 186 0
-361 363 186 0
-46 -361 186 0
-56 364 186 0
-362 364 186 0
-56 -362 365 186 0
-363 365 186 0
-56 -363 186 0
-66 366 186 0
-364 366 186 0
-66 -364 367 186 0
-365 367 186 0
-66 -365 186 0
-76 -367 186 0
-7 368 187 0
-17 369 187 0
-368 369 187 0
-17 -368 187 0
-27 370 187 0
-369 370 187 0
-27 -369 187 0
-37 371 187 0
-370 371 187 0
-37 -370 187 0
-47 372 187 0
-371 372 187 0
-47 -371 187 0
-57 373 187 0
-372 373 187 0
-57 -372 187 0
-67 374 187 0
-373 374 187 0
-67 -373 187 0
-77 -374 187 0
-8 188 0
-18 188 0
-28 188 0
-38 188 0
-48 188 0
-58 188 0
-68 188 0
-78 188 0
-9 375 189 0
-19 376 189 0
-375 376 189 0
-19 -375 189 0
-29 377 189 0
-376 377 189 0
-29 -376 189 0
-39 378 189 0
-377 378 189 0
-39 -377 189 0
-49 379 189 0
-378 379 189 0
-49 -378 189 0
-59 380 189 0
-379 380 189 0
-59 -379 189 0
-69 381 189 0
-380 381 189 0
-69 -380 189 0
-79 -381 189 0
-10 190 0
-20 190 0
-30 190 0
-40 190 0
-50 190 0
-60 190 0
-70 190 0
-80 190 0
-180 0
-181 0
-182 0
-183 0
-184 0
-185 0
-186 0
-187 0
-188 0
-189 0
-190 0
